c ROSIN Emy 29/09/2026
c fichier cnf pour le problème des 3 dames
p cnf 9 34
c clauses "sur chaque ligne il existe au moins une dame": 
1 2 3 0
4 5 6 0
7 8 9 0
c clauses "sur chaque colonne il existe au moins une dame":
1 4 7 0
2 5 8 0
3 6 9 0
c clauses "sur chaque ligne il y a au plus une dame":
-2 -3 0
-1 -3 0
-1 -2 0
-5 -6 0
-4 -6 0
-4 -5 0
-8 -9 0
-7 -9 0
-7 -8 0
c clauses "sur chaque colonne il y a au plus une dame":
-4 -7 0
-1 -7 0
-1 -4 0
-5 -8 0
-2 -8 0
-2 -5 0
-6 -9 0
-3 -9 0
-3 -6 0
c clauses exclusion diagonales:
-5 -9 0
-1 -9 0
-1 -5 0
-2 -6 0
-4 -8 0
-5 -7 0
-3 -7 0
-3 -5 0
-2 -4 0
-6 -8 0
